139715
12,93,89,80,83,34,26,50,68,19,99,100,35,103,61,47,14,74,102,24,76,58,28,27,10,59,66,44,87,1,43,79,91,60,96,15,4,75,32,18,70,94,78,3,101,105,38,104,11,41,67,95,54,71,36,85,48,73,2,33,84,39,37,49,7,53,63,51,82,72,45,25,62,22,86,46,77,21,17,90,64,16,20,56,40,6,88,13,69,81,42,106,98,31,65,52,5,30,29,55,97,8,9,57,23,92,12